p cnf 19 19
-14 -16 0
-8 9 12 0
-8 -5 17 13 -10 9 -12 -3 0
15 -13 -18 -2 -1 -12 -19 0
3 16 -6 -1 -13 2 11 -18 14 -4 10 -8 0
15 3 8 4 -11 -7 9 -5 6 -2 -10 -14 0
4 17 -7 0
-13 -3 -10 17 0
19 1 -16 15 4 17 -8 3 -11 -18 13 0
-9 -11 0
-17 16 2 -1 -6 0
12 11 -15 0
-1 -5 -11 -10 -17 18 -19 -12 3 0
-12 4 5 0
4 18 -7 -11 6 3 -19 9 10 0
-1 -5 -15 16 -17 18 -11 2 12 14 8 -13 0
18 -9 -14 2 0
15 13 0
-17 4 19 0
